DIMACS2
40 169 39 131 313 254 236 274 171 142 52 293 1 176 88 241 5 223 268 56 54 297 145 26 119 93 281 202 69 209 135 9 154 172 317 253 263 15 217 283 256
p edge 320 322
e 0 23 2.0
e 1 193 3.0
e 2 56 31.0
e 2 0 1.0
e 3 48 1.0
e 4 253 46.0
e 5 293 16.0
e 6 300 1.0
e 7 194 1.0
e 8 180 11.0
e 9 31 48.0
e 10 219 4.0
e 11 56 2.0
e 12 263 14.0
e 13 266 1.0
e 14 313 19.0
e 15 104 30.0
e 16 213 1.0
e 17 6 1.0
e 18 169 22.0
e 19 55 2.0
e 20 140 1.0
e 21 304 1.0
e 22 267 2.0
e 23 79 1.0
e 24 50 1.0
e 25 32 1.0
e 26 281 34.0
e 27 193 11.0
e 28 191 1.0
e 29 24 1.0
e 30 86 1.0
e 31 296 1.0
e 32 86 1.0
e 33 78 2.0
e 34 230 1.0
e 35 179 1.0
e 36 199 1.0
e 37 147 1.0
e 38 133 1.0
e 39 31 30.0
e 40 303 1.0
e 41 305 1.0
e 42 94 1.0
e 43 76 1.0
e 44 11 3.0
e 45 88 47.0
e 45 2 1.0
e 46 131 8.0
e 47 100 1.0
e 48 91 1.0
e 49 173 1.0
e 50 13 1.0
e 51 128 1.0
e 52 74 33.0
e 53 60 4.0
e 54 76 47.0
e 55 2 1.0
e 56 158 5.0
e 57 184 1.0
e 58 16 1.0
e 59 207 1.0
e 60 105 5.0
e 61 195 11.0
e 62 21 1.0
e 63 68 2.0
e 64 108 1.0
e 65 216 1.0
e 66 28 1.0
e 67 245 1.0
e 68 118 2.0
e 69 68 28.0
e 70 279 1.0
e 71 256 12.0
e 72 91 1.0
e 73 76 1.0
e 74 66 6.0
e 75 130 1.0
e 76 281 45.0
e 77 140 1.0
e 78 309 1.0
e 79 207 1.0
e 80 183 2.0
e 81 182 1.0
e 82 16 1.0
e 83 185 2.0
e 84 48 2.0
e 85 101 1.0
e 86 157 1.0
e 87 204 1.0
e 88 188 6.0
e 89 187 1.0
e 90 128 1.0
e 91 310 1.0
e 92 278 9.0
e 93 61 8.0
e 94 63 2.0
e 95 317 39.0
e 96 123 1.0
e 97 192 1.0
e 98 31 1.0
e 99 315 2.0
e 100 306 1.0
e 101 87 1.0
e 102 299 4.0
e 103 199 1.0
e 104 239 1.0
e 105 92 3.0
e 106 195 4.0
e 107 84 1.0
e 108 75 1.0
e 109 244 7.0
e 110 197 2.0
e 111 309 1.0
e 112 195 1.0
e 113 188 6.0
e 114 85 1.0
e 115 104 1.0
e 116 311 1.0
e 117 45 2.0
e 118 277 1.0
e 119 219 34.0
e 120 48 1.0
e 121 166 1.0
e 122 150 1.0
e 123 47 2.0
e 124 95 1.0
e 125 4 1.0
e 126 108 1.0
e 127 39 30.0
e 128 37 1.0
e 129 240 1.0
e 130 226 2.0
e 131 78 49.0
e 132 308 1.0
e 133 258 2.0
e 134 231 1.0
e 135 14 27.0
e 136 314 1.0
e 137 140 1.0
e 138 151 1.0
e 139 49 1.0
e 140 84 1.0
e 141 105 1.0
e 142 165 29.0
e 143 103 1.0
e 144 155 1.0
e 145 293 46.0
e 146 244 7.0
e 147 271 1.0
e 148 219 1.0
e 149 225 1.0
e 150 171 33.0
e 151 207 2.0
e 152 259 1.0
e 153 202 33.0
e 154 110 30.0
e 155 57 1.0
e 156 281 30.0
e 157 247 1.0
e 158 293 19.0
e 159 41 1.0
e 160 251 1.0
e 161 49 1.0
e 162 190 2.0
e 163 306 2.0
e 164 23 1.0
e 165 50 1.0
e 166 81 1.0
e 167 31 1.0
e 168 167 1.0
e 169 275 25.0
e 170 29 2.0
e 171 279 33.0
e 172 38 47.0
e 173 67 1.0
e 174 39 38.0
e 175 215 8.0
e 176 309 47.0
e 177 39 4.0
e 178 318 1.0
e 179 269 2.0
e 180 120 6.0
e 181 121 1.0
e 182 229 1.0
e 183 1 46.0
e 184 197 2.0
e 185 150 1.0
e 186 252 1.0
e 187 193 6.0
e 188 45 2.0
e 189 51 1.0
e 190 226 3.0
e 191 132 1.0
e 192 111 1.0
e 193 304 8.0
e 194 118 1.0
e 195 189 1.0
e 196 162 1.0
e 197 144 1.0
e 198 116 1.0
e 199 49 1.0
e 200 29 1.0
e 201 194 1.0
e 202 240 12.0
e 203 150 1.0
e 204 30 1.0
e 205 227 1.0
e 206 13 1.0
e 207 104 1.0
e 208 224 1.0
e 209 39 8.0
e 210 31 1.0
e 211 271 1.0
e 212 38 1.0
e 213 311 1.0
e 214 254 19.0
e 215 254 12.0
e 216 71 2.0
e 217 317 15.0
e 218 2 2.0
e 219 289 11.0
e 220 160 1.0
e 221 50 1.0
e 222 141 1.0
e 223 102 10.0
e 224 270 1.0
e 225 182 1.0
e 226 219 6.0
e 227 300 1.0
e 228 136 1.0
e 229 63 1.0
e 230 33 2.0
e 231 168 1.0
e 232 3 2.0
e 233 10 1.0
e 234 253 36.0
e 235 157 1.0
e 236 122 3.0
e 237 27 2.0
e 238 245 1.0
e 239 25 1.0
e 240 170 11.0
e 241 127 14.0
e 242 31 1.0
e 243 144 1.0
e 244 169 45.0
e 245 62 1.0
e 246 214 5.0
e 247 75 1.0
e 248 16 1.0
e 249 290 1.0
e 250 22 1.0
e 251 199 1.0
e 252 206 1.0
e 253 118 32.0
e 254 180 36.0
e 255 288 1.0
e 256 268 48.0
e 257 69 9.0
e 258 125 2.0
e 259 75 2.0
e 260 110 2.0
e 261 113 2.0
e 262 48 1.0
e 263 104 11.0
e 264 139 1.0
e 265 173 1.0
e 266 80 1.0
e 267 2 1.0
e 268 258 37.0
e 269 317 24.0
e 270 126 1.0
e 271 286 1.0
e 272 67 1.0
e 273 283 25.0
e 274 125 10.0
e 275 53 5.0
e 276 242 1.0
e 277 128 2.0
e 278 254 27.0
e 279 184 9.0
e 280 74 2.0
e 281 221 9.0
e 282 120 2.0
e 283 60 47.0
e 284 14 1.0
e 285 36 1.0
e 286 199 1.0
e 287 243 1.0
e 288 147 1.0
e 289 298 3.0
e 290 200 1.0
e 291 26 47.0
e 292 61 7.0
e 293 154 3.0
e 294 73 1.0
e 295 10 4.0
e 296 52 43.0
e 297 207 8.0
e 298 187 1.0
e 299 13 1.0
e 300 90 1.0
e 301 257 4.0
e 302 26 13.0
e 303 30 1.0
e 304 50 1.0
e 305 286 1.0
e 306 70 5.0
e 307 202 45.0
e 308 268 20.0
e 309 283 11.0
e 310 200 1.0
e 311 0 2.0
e 312 204 1.0
e 313 122 29.0
e 314 2 2.0
e 315 9 38.0
e 316 137 2.0
e 317 259 6.0
e 318 63 2.0
e 319 9 22.0
